N = 11;
H = 5;
T = 2;

avail = array3d(1..N, 1..H, 1..T, [4, 2, 2, 0, 5, 6, 2, 8, 2, 9, 5, 9, 8, 7, 9, 1, 4, 4, 5, 4, 10, 5, 4, 8, 1, 5, 5, 7, 7, 1, 2, 1, 6, 1, 6, 7, 4, 5, 4, 2, 9, 2, 0, 6, 6, 8, 2, 6, 2, 6, 1, 1, 5, 8, 7, 8, 1, 5, 5, 5, 10, 1, 9, 1, 8, 3, 5, 10, 9, 1, 7, 4, 7, 7, 3, 2, 2, 2, 4, 5, 9, 5, 5, 1, 2, 8, 10, 4, 4, 5, 5, 10, 3, 7, 1, 8, 6, 5, 4, 5, 7, 0, 3, 8, 7, 3, 6, 10, 3, 5]);

r = array2d(1..H, 1..T, [0, 3, 3, 2, 2, 3, 3, 6, 6, 3]);
